p cnf 35 24
-1 33 -22 0 
-2 -3 -4 9 -5 33 -22 0 
-5 -6 -2 -7 33 -22 0 
-8 33 -22 0 
-9 4 -10 -5 -11 33 -22 0 
-12 33 -22 0 
-13 34 0 
-14 26 33 -22 0 
-15 33 -22 0 
-16 -17 -18 -19 25 29 32 33 -22 0 
-20 34 0 
-16 -5 -14 26 33 -22 0 
-21 33 -22 0 
-22 35 0 
-23 33 -22 0 
-11 -10 -5 33 -22 0 
-24 -25 19 29 32 33 -22 0 
-24 -8 33 -22 0 
-26 14 -4 9 -10 -5 -27 33 -22 0 
-5 -28 -16 -26 14 -29 19 25 32 33 -22 0 
-24 -4 9 -5 33 -22 0 
-7 -8 -30 33 -22 0 
-31 33 -22 0 
-24 -5 -32 19 25 29 33 -22 0 
